c Generated map
c Size: 10 * 10, weights in range: 1 to 10, walls: False, with ratio 0.0
c dim 2 of 6
c
p sp 100 180
c graph contains 100 nodes and 180 arcs
c
a 1 11 4
a 11 1 4
a 1 2 3
a 2 1 3
a 2 12 4
a 12 2 4
a 2 3 6
a 3 2 6
a 3 13 8
a 13 3 8
a 3 4 3
a 4 3 3
a 4 14 2
a 14 4 2
a 4 5 3
a 5 4 3
a 5 15 10
a 15 5 10
a 5 6 10
a 6 5 10
a 6 16 1
a 16 6 1
a 6 7 7
a 7 6 7
a 7 17 7
a 17 7 7
a 7 8 4
a 8 7 4
a 8 18 1
a 18 8 1
a 8 9 10
a 9 8 10
a 9 19 4
a 19 9 4
a 9 10 4
a 10 9 4
a 10 20 7
a 20 10 7
a 11 21 1
a 21 11 1
a 11 12 2
a 12 11 2
a 12 22 4
a 22 12 4
a 12 13 2
a 13 12 2
a 13 23 3
a 23 13 3
a 13 14 8
a 14 13 8
a 14 24 4
a 24 14 4
a 14 15 9
a 15 14 9
a 15 25 6
a 25 15 6
a 15 16 7
a 16 15 7
a 16 26 10
a 26 16 10
a 16 17 8
a 17 16 8
a 17 27 8
a 27 17 8
a 17 18 2
a 18 17 2
a 18 28 3
a 28 18 3
a 18 19 6
a 19 18 6
a 19 29 3
a 29 19 3
a 19 20 7
a 20 19 7
a 20 30 5
a 30 20 5
a 21 31 10
a 31 21 10
a 21 22 3
a 22 21 3
a 22 32 1
a 32 22 1
a 22 23 6
a 23 22 6
a 23 33 10
a 33 23 10
a 23 24 9
a 24 23 9
a 24 34 10
a 34 24 10
a 24 25 10
a 25 24 10
a 25 35 8
a 35 25 8
a 25 26 3
a 26 25 3
a 26 36 1
a 36 26 1
a 26 27 5
a 27 26 5
a 27 37 3
a 37 27 3
a 27 28 2
a 28 27 2
a 28 38 3
a 38 28 3
a 28 29 9
a 29 28 9
a 29 39 9
a 39 29 9
a 29 30 5
a 30 29 5
a 30 40 7
a 40 30 7
a 31 41 7
a 41 31 7
a 31 32 1
a 32 31 1
a 32 42 3
a 42 32 3
a 32 33 9
a 33 32 9
a 33 43 9
a 43 33 9
a 33 34 8
a 34 33 8
a 34 44 4
a 44 34 4
a 34 35 10
a 35 34 10
a 35 45 1
a 45 35 1
a 35 36 6
a 36 35 6
a 36 46 9
a 46 36 9
a 36 37 6
a 37 36 6
a 37 47 7
a 47 37 7
a 37 38 9
a 38 37 9
a 38 48 10
a 48 38 10
a 38 39 5
a 39 38 5
a 39 49 9
a 49 39 9
a 39 40 2
a 40 39 2
a 40 50 10
a 50 40 10
a 41 51 7
a 51 41 7
a 41 42 9
a 42 41 9
a 42 52 7
a 52 42 7
a 42 43 1
a 43 42 1
a 43 53 10
a 53 43 10
a 43 44 6
a 44 43 6
a 44 54 5
a 54 44 5
a 44 45 7
a 45 44 7
a 45 55 3
a 55 45 3
a 45 46 10
a 46 45 10
a 46 56 8
a 56 46 8
a 46 47 6
a 47 46 6
a 47 57 1
a 57 47 1
a 47 48 2
a 48 47 2
a 48 58 2
a 58 48 2
a 48 49 3
a 49 48 3
a 49 59 10
a 59 49 10
a 49 50 5
a 50 49 5
a 50 60 3
a 60 50 3
a 51 61 2
a 61 51 2
a 51 52 5
a 52 51 5
a 52 62 10
a 62 52 10
a 52 53 4
a 53 52 4
a 53 63 7
a 63 53 7
a 53 54 8
a 54 53 8
a 54 64 4
a 64 54 4
a 54 55 5
a 55 54 5
a 55 65 2
a 65 55 2
a 55 56 7
a 56 55 7
a 56 66 8
a 66 56 8
a 56 57 10
a 57 56 10
a 57 67 2
a 67 57 2
a 57 58 2
a 58 57 2
a 58 68 7
a 68 58 7
a 58 59 2
a 59 58 2
a 59 69 3
a 69 59 3
a 59 60 4
a 60 59 4
a 60 70 4
a 70 60 4
a 61 71 2
a 71 61 2
a 61 62 7
a 62 61 7
a 62 72 7
a 72 62 7
a 62 63 8
a 63 62 8
a 63 73 1
a 73 63 1
a 63 64 1
a 64 63 1
a 64 74 8
a 74 64 8
a 64 65 7
a 65 64 7
a 65 75 9
a 75 65 9
a 65 66 3
a 66 65 3
a 66 76 7
a 76 66 7
a 66 67 7
a 67 66 7
a 67 77 1
a 77 67 1
a 67 68 5
a 68 67 5
a 68 78 5
a 78 68 5
a 68 69 5
a 69 68 5
a 69 79 3
a 79 69 3
a 69 70 7
a 70 69 7
a 70 80 1
a 80 70 1
a 71 81 4
a 81 71 4
a 71 72 9
a 72 71 9
a 72 82 5
a 82 72 5
a 72 73 2
a 73 72 2
a 73 83 10
a 83 73 10
a 73 74 8
a 74 73 8
a 74 84 8
a 84 74 8
a 74 75 7
a 75 74 7
a 75 85 7
a 85 75 7
a 75 76 9
a 76 75 9
a 76 86 1
a 86 76 1
a 76 77 9
a 77 76 9
a 77 87 10
a 87 77 10
a 77 78 1
a 78 77 1
a 78 88 8
a 88 78 8
a 78 79 7
a 79 78 7
a 79 89 6
a 89 79 6
a 79 80 10
a 80 79 10
a 80 90 3
a 90 80 3
a 81 91 8
a 91 81 8
a 81 82 10
a 82 81 10
a 82 92 2
a 92 82 2
a 82 83 8
a 83 82 8
a 83 93 8
a 93 83 8
a 83 84 1
a 84 83 1
a 84 94 4
a 94 84 4
a 84 85 9
a 85 84 9
a 85 95 7
a 95 85 7
a 85 86 9
a 86 85 9
a 86 96 8
a 96 86 8
a 86 87 2
a 87 86 2
a 87 97 4
a 97 87 4
a 87 88 8
a 88 87 8
a 88 98 1
a 98 88 1
a 88 89 9
a 89 88 9
a 89 99 8
a 99 89 8
a 89 90 7
a 90 89 7
a 90 100 7
a 100 90 7
a 91 92 10
a 92 91 10
a 92 93 2
a 93 92 2
a 93 94 5
a 94 93 5
a 94 95 5
a 95 94 5
a 95 96 3
a 96 95 3
a 96 97 5
a 97 96 5
a 97 98 7
a 98 97 7
a 98 99 7
a 99 98 7
a 99 100 4
a 100 99 4
